Gurobi Optimizer version 9.5.2 build v9.5.2rc0 (win64)
Thread count: 4 physical cores, 8 logical processors, using up to 8 threads
Optimize a model with 2 rows, 2 columns and 4 nonzeros
Model fingerprint: 0x2fe6baf4
Variable types: 0 continuous, 2 integer (0 binary)
Coefficient statistics:
  Matrix range     [2e+00, 5e+00]
  Objective range  [1e+00, 4e+00]
  Bounds range     [0e+00, 0e+00]
  RHS range        [1e+01, 2e+01]
Variable types: 0 continuous, 2 integer (0 binary)

Root relaxation: objective 1.200000e+01, 0 iterations, 0.00 seconds (0.00 work units)

    Nodes    |    Current Node    |     Objective Bounds      |     Work
 Expl Unexpl |  Obj  Depth IntInf | Incumbent    BestBd   Gap | It/Node Time

*    0     0               0      12.0000000   12.00000  0.00%     -    0s

Explored 1 nodes (0 simplex iterations) in 0.02 seconds (0.00 work units)
Thread count was 8 (of 8 available processors)

Solution count 1: 12 

Solve interrupted
Best objective 1.200000000000e+01, best bound 1.200000000000e+01, gap 0.0000%

User-callback calls 37, time in user-callback 0.00 sec
